
Log started (V20.1.0.0) Sun Aug  7 18:33:11 2022


Problem 'pp.lp' read.
Read time = 0.00 sec. (0.00 ticks)
Version identifier: 20.1.0.0 | 2020-11-10 | 9bedb6d68
Tried aggregator 1 time.
No LP presolve or aggregator reductions.
Presolve time = 0.00 sec. (0.00 ticks)

Iteration log . . .
Iteration:     1   Dual infeasibility =             0.000000
Iteration:     2   Dual objective     =            54.000000

Dual simplex - Optimal:  Objective =  5.0400000000e+01
Solution time =    0.02 sec.  Iterations = 3 (1)
Deterministic time = 0.00 ticks  (0.29 ticks/sec)


Variable Name           Solution Value
x1                            5.600000
x2                            5.600000

Log started (V20.1.0.0) Sun Aug  7 18:43:25 2022


Problem 'pd.lp' read.
Read time = 0.00 sec. (0.00 ticks)
Version identifier: 20.1.0.0 | 2020-11-10 | 9bedb6d68
Tried aggregator 1 time.
LP Presolve eliminated 1 rows and 2 columns.
Aggregator did 1 substitutions.
All rows and columns eliminated.
Presolve time = 0.00 sec. (0.00 ticks)

Dual simplex - Optimal:  Objective =  5.0400000000e+01
Solution time =    0.00 sec.  Iterations = 0 (0)
Deterministic time = 0.00 ticks  (2.24 ticks/sec)


Variable Name           Solution Value
w1                            1.800000
w3                            2.400000
All other variables matching '*' are 0.
Version identifier: 20.1.0.0 | 2020-11-10 | 9bedb6d68
Using devex.

Primal simplex - Optimal:  Objective =  5.0400000000e+01
Solution time =    0.00 sec.  Iterations = 0 (0)
Deterministic time = 0.00 ticks  (0.43 ticks/sec)


Variable Name           Solution Value
w1                            1.800000
w3                            2.400000
All other variables matching '*' are 0.

Log started (V20.1.0.0) Sun Aug  7 18:52:29 2022


Problem 'pp.lp' read.
Read time = 0.01 sec. (0.00 ticks)
Version identifier: 20.1.0.0 | 2020-11-10 | 9bedb6d68
Tried aggregator 1 time.
No LP presolve or aggregator reductions.
Presolve time = 0.00 sec. (0.00 ticks)

Iteration log . . .
Iteration:     1   Dual infeasibility =             0.000000
Iteration:     2   Dual objective     =            54.000000

Dual simplex - Optimal:  Objective =  5.0400000000e+01
Solution time =    0.00 sec.  Iterations = 3 (1)
Deterministic time = 0.00 ticks  (4.66 ticks/sec)


Variable Name           Solution Value
x1                            5.600000
x2                            5.600000

Log started (V20.1.0.0) Sun Aug  7 18:53:11 2022


Problem 'pd.lp' read.
Read time = 0.00 sec. (0.00 ticks)
Version identifier: 20.1.0.0 | 2020-11-10 | 9bedb6d68
Tried aggregator 1 time.
LP Presolve eliminated 1 rows and 2 columns.
Aggregator did 1 substitutions.
All rows and columns eliminated.
Presolve time = 0.00 sec. (0.00 ticks)

Dual simplex - Optimal:  Objective =  5.0400000000e+01
Solution time =    0.00 sec.  Iterations = 0 (0)
Deterministic time = 0.00 ticks  (2.24 ticks/sec)


Variable Name           Solution Value
w1                            1.800000
w3                            2.400000
All other variables matching '*' are 0.
